2974 3075
2578 1003
966 4733
4631 2228
3738 1178
3582 3490
4595 166
3674 1096
645 1197
737 3518
1464 1879
626 3647
4798 4890
4899 4457
986 756
1437 3481
4623 4632
1879 2239
332 1778
2736 1751
1659 3813
1852 4062
2303 4412
1659 2395
3307 1244
4043 1041
1695 3491
1345 3914
544 931
167 2367
4624 4918
2358 65
3390 2588
4384 1345
1447 4531
4255 1087
1437 2809
129 2579
2901 2975
4384 535
4734 2275
3132 3997
1364 194
1198 4209
4228 4090
1199 1659
2460 812
2267 103
3243 1816
2507 380
